c Generated map
c Size: 15 * 15, weights in range: 1 to 10, walls: True, with ratio 0.05
c dim 1 of 4
c
p sp 225 380
c graph contains 225 nodes and 380 arcs
c
a 1 16 4
a 16 1 4
a 1 2 9
a 2 1 9
a 2 17 7
a 17 2 7
a 2 3 1
a 3 2 1
a 3 18 3
a 18 3 3
a 3 4 4
a 4 3 4
a 4 19 10
a 19 4 10
a 4 5 5
a 5 4 5
a 5 20 7
a 20 5 7
a 5 6 4
a 6 5 4
a 6 21 1
a 21 6 1
a 6 7 10
a 7 6 10
a 7 22 6
a 22 7 6
a 7 8 4
a 8 7 4
a 8 23 8
a 23 8 8
a 8 9 4
a 9 8 4
a 9 24 10
a 24 9 10
a 9 10 3
a 10 9 3
a 10 25 10
a 25 10 10
a 10 11 1
a 11 10 1
a 11 26 8
a 26 11 8
a 11 12 4
a 12 11 4
a 12 27 9
a 27 12 9
a 12 13 7
a 13 12 7
a 13 28 6
a 28 13 6
a 13 14 4
a 14 13 4
a 14 29 2
a 29 14 2
a 14 15 5
a 15 14 5
a 15 30 8
a 30 15 8
a 16 17 5
a 17 16 5
a 17 32 6
a 32 17 6
a 17 18 4
a 18 17 4
a 18 33 6
a 33 18 6
a 18 19 6
a 19 18 6
a 19 34 1
a 34 19 1
a 19 20 7
a 20 19 7
a 20 35 3
a 35 20 3
a 20 21 8
a 21 20 8
a 21 36 3
a 36 21 3
a 21 22 5
a 22 21 5
a 22 37 8
a 37 22 8
a 22 23 2
a 23 22 2
a 23 24 3
a 24 23 3
a 24 39 8
a 39 24 8
a 24 25 4
a 25 24 4
a 25 40 3
a 40 25 3
a 25 26 1
a 26 25 1
a 26 41 9
a 41 26 9
a 26 27 9
a 27 26 9
a 27 42 1
a 42 27 1
a 27 28 7
a 28 27 7
a 28 43 10
a 43 28 10
a 28 29 3
a 29 28 3
a 29 44 1
a 44 29 1
a 29 30 9
a 30 29 9
a 30 45 7
a 45 30 7
a 32 47 7
a 47 32 7
a 32 33 7
a 33 32 7
a 33 48 8
a 48 33 8
a 33 34 2
a 34 33 2
a 34 49 1
a 49 34 1
a 34 35 3
a 35 34 3
a 35 50 1
a 50 35 1
a 35 36 5
a 36 35 5
a 36 51 7
a 51 36 7
a 36 37 1
a 37 36 1
a 37 52 1
a 52 37 1
a 39 54 8
a 54 39 8
a 39 40 5
a 40 39 5
a 40 55 3
a 55 40 3
a 40 41 4
a 41 40 4
a 41 56 10
a 56 41 10
a 41 42 5
a 42 41 5
a 42 57 9
a 57 42 9
a 42 43 10
a 43 42 10
a 43 58 7
a 58 43 7
a 43 44 6
a 44 43 6
a 44 59 7
a 59 44 7
a 44 45 3
a 45 44 3
a 46 61 7
a 61 46 7
a 46 47 8
a 47 46 8
a 47 62 10
a 62 47 10
a 47 48 4
a 48 47 4
a 48 63 9
a 63 48 9
a 48 49 7
a 49 48 7
a 49 64 10
a 64 49 10
a 49 50 6
a 50 49 6
a 50 65 3
a 65 50 3
a 50 51 3
a 51 50 3
a 51 66 6
a 66 51 6
a 51 52 10
a 52 51 10
a 52 67 2
a 67 52 2
a 52 53 5
a 53 52 5
a 53 68 1
a 68 53 1
a 53 54 3
a 54 53 3
a 54 69 8
a 69 54 8
a 54 55 3
a 55 54 3
a 55 70 5
a 70 55 5
a 55 56 10
a 56 55 10
a 56 71 1
a 71 56 1
a 56 57 2
a 57 56 2
a 57 72 5
a 72 57 5
a 57 58 9
a 58 57 9
a 58 73 2
a 73 58 2
a 58 59 2
a 59 58 2
a 59 74 3
a 74 59 3
a 61 76 10
a 76 61 10
a 61 62 3
a 62 61 3
a 62 77 9
a 77 62 9
a 62 63 10
a 63 62 10
a 63 78 2
a 78 63 2
a 63 64 7
a 64 63 7
a 64 79 9
a 79 64 9
a 64 65 5
a 65 64 5
a 65 80 7
a 80 65 7
a 65 66 6
a 66 65 6
a 66 81 5
a 81 66 5
a 66 67 7
a 67 66 7
a 67 82 3
a 82 67 3
a 67 68 5
a 68 67 5
a 68 83 2
a 83 68 2
a 68 69 1
a 69 68 1
a 69 84 10
a 84 69 10
a 69 70 2
a 70 69 2
a 70 85 7
a 85 70 7
a 70 71 3
a 71 70 3
a 71 86 1
a 86 71 1
a 71 72 7
a 72 71 7
a 72 73 6
a 73 72 6
a 73 88 5
a 88 73 5
a 73 74 1
a 74 73 1
a 74 75 2
a 75 74 2
a 75 90 3
a 90 75 3
a 76 91 8
a 91 76 8
a 76 77 4
a 77 76 4
a 77 92 5
a 92 77 5
a 77 78 4
a 78 77 4
a 78 93 3
a 93 78 3
a 78 79 10
a 79 78 10
a 79 94 8
a 94 79 8
a 79 80 6
a 80 79 6
a 80 95 3
a 95 80 3
a 80 81 1
a 81 80 1
a 81 96 9
a 96 81 9
a 81 82 3
a 82 81 3
a 82 97 6
a 97 82 6
a 82 83 2
a 83 82 2
a 83 98 10
a 98 83 10
a 83 84 2
a 84 83 2
a 84 99 6
a 99 84 6
a 84 85 8
a 85 84 8
a 85 100 1
a 100 85 1
a 85 86 8
a 86 85 8
a 86 101 7
a 101 86 7
a 88 103 3
a 103 88 3
a 90 105 3
a 105 90 3
a 91 106 6
a 106 91 6
a 91 92 7
a 92 91 7
a 92 107 7
a 107 92 7
a 92 93 6
a 93 92 6
a 93 108 2
a 108 93 2
a 93 94 7
a 94 93 7
a 94 109 1
a 109 94 1
a 94 95 5
a 95 94 5
a 95 110 1
a 110 95 1
a 95 96 4
a 96 95 4
a 96 111 3
a 111 96 3
a 96 97 2
a 97 96 2
a 97 112 1
a 112 97 1
a 97 98 3
a 98 97 3
a 98 113 2
a 113 98 2
a 98 99 7
a 99 98 7
a 99 114 1
a 114 99 1
a 99 100 8
a 100 99 8
a 100 115 6
a 115 100 6
a 100 101 9
a 101 100 9
a 101 116 3
a 116 101 3
a 101 102 4
a 102 101 4
a 102 117 4
a 117 102 4
a 102 103 5
a 103 102 5
a 103 118 2
a 118 103 2
a 103 104 6
a 104 103 6
a 104 119 3
a 119 104 3
a 104 105 4
a 105 104 4
a 105 120 7
a 120 105 7
a 106 121 2
a 121 106 2
a 106 107 8
a 107 106 8
a 107 122 7
a 122 107 7
a 107 108 8
a 108 107 8
a 108 123 7
a 123 108 7
a 108 109 6
a 109 108 6
a 109 124 3
a 124 109 3
a 109 110 7
a 110 109 7
a 110 125 4
a 125 110 4
a 110 111 2
a 111 110 2
a 111 126 3
a 126 111 3
a 111 112 5
a 112 111 5
a 112 127 5
a 127 112 5
a 112 113 7
a 113 112 7
a 113 128 7
a 128 113 7
a 113 114 1
a 114 113 1
a 114 129 2
a 129 114 2
a 114 115 5
a 115 114 5
a 115 130 1
a 130 115 1
a 115 116 3
a 116 115 3
a 116 131 1
a 131 116 1
a 116 117 3
a 117 116 3
a 117 118 8
a 118 117 8
a 118 133 8
a 133 118 8
a 118 119 8
a 119 118 8
a 119 134 8
a 134 119 8
a 119 120 5
a 120 119 5
a 120 135 4
a 135 120 4
a 121 136 10
a 136 121 10
a 121 122 1
a 122 121 1
a 122 137 9
a 137 122 9
a 122 123 6
a 123 122 6
a 123 138 2
a 138 123 2
a 123 124 3
a 124 123 3
a 124 139 1
a 139 124 1
a 124 125 7
a 125 124 7
a 125 140 5
a 140 125 5
a 125 126 1
a 126 125 1
a 126 141 9
a 141 126 9
a 126 127 1
a 127 126 1
a 127 142 3
a 142 127 3
a 127 128 2
a 128 127 2
a 128 129 8
a 129 128 8
a 129 144 8
a 144 129 8
a 129 130 9
a 130 129 9
a 130 145 10
a 145 130 10
a 130 131 2
a 131 130 2
a 131 146 10
a 146 131 10
a 133 148 2
a 148 133 2
a 133 134 4
a 134 133 4
a 134 149 1
a 149 134 1
a 134 135 1
a 135 134 1
a 135 150 10
a 150 135 10
a 136 151 7
a 151 136 7
a 136 137 8
a 137 136 8
a 137 152 1
a 152 137 1
a 137 138 3
a 138 137 3
a 138 153 9
a 153 138 9
a 138 139 9
a 139 138 9
a 139 154 3
a 154 139 3
a 139 140 9
a 140 139 9
a 140 155 4
a 155 140 4
a 140 141 5
a 141 140 5
a 141 156 4
a 156 141 4
a 141 142 8
a 142 141 8
a 142 157 2
a 157 142 2
a 144 159 1
a 159 144 1
a 144 145 2
a 145 144 2
a 145 160 7
a 160 145 7
a 145 146 10
a 146 145 10
a 146 161 9
a 161 146 9
a 146 147 3
a 147 146 3
a 147 162 5
a 162 147 5
a 147 148 10
a 148 147 10
a 148 163 5
a 163 148 5
a 148 149 7
a 149 148 7
a 149 164 1
a 164 149 1
a 149 150 7
a 150 149 7
a 150 165 9
a 165 150 9
a 151 166 9
a 166 151 9
a 151 152 8
a 152 151 8
a 152 167 5
a 167 152 5
a 152 153 3
a 153 152 3
a 153 168 10
a 168 153 10
a 153 154 3
a 154 153 3
a 154 169 3
a 169 154 3
a 154 155 7
a 155 154 7
a 155 170 4
a 170 155 4
a 155 156 2
a 156 155 2
a 156 171 8
a 171 156 8
a 156 157 3
a 157 156 3
a 157 172 9
a 172 157 9
a 159 174 3
a 174 159 3
a 159 160 6
a 160 159 6
a 160 175 4
a 175 160 4
a 160 161 10
a 161 160 10
a 161 176 10
a 176 161 10
a 161 162 7
a 162 161 7
a 162 163 2
a 163 162 2
a 163 178 8
a 178 163 8
a 163 164 8
a 164 163 8
a 164 179 5
a 179 164 5
a 164 165 10
a 165 164 10
a 165 180 10
a 180 165 10
a 166 181 8
a 181 166 8
a 166 167 9
a 167 166 9
a 167 182 3
a 182 167 3
a 167 168 6
a 168 167 6
a 168 183 7
a 183 168 7
a 168 169 5
a 169 168 5
a 169 184 5
a 184 169 5
a 169 170 4
a 170 169 4
a 170 185 1
a 185 170 1
a 170 171 2
a 171 170 2
a 171 186 6
a 186 171 6
a 171 172 3
a 172 171 3
a 172 187 9
a 187 172 9
a 172 173 1
a 173 172 1
a 173 188 5
a 188 173 5
a 173 174 9
a 174 173 9
a 174 189 6
a 189 174 6
a 174 175 6
a 175 174 6
a 175 190 8
a 190 175 8
a 175 176 2
a 176 175 2
a 176 191 10
a 191 176 10
a 178 193 8
a 193 178 8
a 178 179 4
a 179 178 4
a 179 194 3
a 194 179 3
a 179 180 2
a 180 179 2
a 180 195 7
a 195 180 7
a 181 196 2
a 196 181 2
a 181 182 8
a 182 181 8
a 182 197 7
a 197 182 7
a 182 183 1
a 183 182 1
a 183 198 5
a 198 183 5
a 183 184 7
a 184 183 7
a 184 185 4
a 185 184 4
a 185 200 1
a 200 185 1
a 185 186 3
a 186 185 3
a 186 201 4
a 201 186 4
a 186 187 4
a 187 186 4
a 187 202 5
a 202 187 5
a 187 188 1
a 188 187 1
a 188 203 7
a 203 188 7
a 188 189 6
a 189 188 6
a 189 204 7
a 204 189 7
a 189 190 1
a 190 189 1
a 190 205 10
a 205 190 10
a 190 191 6
a 191 190 6
a 191 206 8
a 206 191 8
a 191 192 3
a 192 191 3
a 192 207 5
a 207 192 5
a 192 193 10
a 193 192 10
a 193 208 9
a 208 193 9
a 193 194 2
a 194 193 2
a 194 209 5
a 209 194 5
a 194 195 1
a 195 194 1
a 195 210 6
a 210 195 6
a 196 211 7
a 211 196 7
a 196 197 5
a 197 196 5
a 197 212 4
a 212 197 4
a 197 198 8
a 198 197 8
a 198 213 6
a 213 198 6
a 200 215 10
a 215 200 10
a 200 201 7
a 201 200 7
a 201 216 4
a 216 201 4
a 201 202 9
a 202 201 9
a 202 217 3
a 217 202 3
a 202 203 8
a 203 202 8
a 203 218 6
a 218 203 6
a 203 204 2
a 204 203 2
a 204 219 2
a 219 204 2
a 204 205 3
a 205 204 3
a 205 220 4
a 220 205 4
a 205 206 5
a 206 205 5
a 206 207 9
a 207 206 9
a 207 222 3
a 222 207 3
a 207 208 7
a 208 207 7
a 208 223 7
a 223 208 7
a 208 209 3
a 209 208 3
a 209 224 1
a 224 209 1
a 209 210 2
a 210 209 2
a 210 225 9
a 225 210 9
a 211 212 5
a 212 211 5
a 212 213 10
a 213 212 10
a 213 214 7
a 214 213 7
a 214 215 6
a 215 214 6
a 215 216 8
a 216 215 8
a 216 217 5
a 217 216 5
a 217 218 2
a 218 217 2
a 218 219 2
a 219 218 2
a 219 220 8
a 220 219 8
a 222 223 6
a 223 222 6
a 223 224 5
a 224 223 5
a 224 225 6
a 225 224 6
